12350
[23, 26, 25, 13, 12, 46, 27, 10, 51, 50, 11, 32, 3, 14, 4, 39, 33, 34, 31, 2, 16, 49, 15, 36, 38, 44, 35, 45, 47, 48, 43, 22, 17, 30, 20, 6, 41, 1, 28, 29, 19, 21, 0, 18, 8, 9, 40, 7, 42, 5, 24, 37]